
n_res = 4;
rcap = [64, 52, 531, 563];
rtype = [1, 1, 2, 2];
n_tasks = 100;
modes =  [{1, 2, 3}, {4, 5, 6}, {7, 8, 9}, {10, 11, 12}, {13, 14, 15}, {16, 17, 18}, {19, 20, 21}, {22, 23, 24}, {25, 26, 27}, {28, 29, 30}, {31, 32, 33}, {34, 35, 36}, {37, 38, 39}, {40, 41, 42}, {43, 44, 45}, {46, 47, 48}, {49, 50, 51}, {52, 53, 54}, {55, 56, 57}, {58, 59, 60}, {61, 62, 63}, {64, 65, 66}, {67, 68, 69}, {70, 71, 72}, {73, 74, 75}, {76, 77, 78}, {79, 80, 81}, {82, 83, 84}, {85, 86, 87}, {88, 89, 90}, {91, 92, 93}, {94, 95, 96}, {97, 98, 99}, {100, 101, 102}, {103, 104, 105}, {106, 107, 108}, {109, 110, 111}, {112, 113, 114}, {115, 116, 117}, {118, 119, 120}, {121, 122, 123}, {124, 125, 126}, {127, 128, 129}, {130, 131, 132}, {133, 134, 135}, {136, 137, 138}, {139, 140, 141}, {142, 143, 144}, {145, 146, 147}, {148, 149, 150}, {151, 152, 153}, {154, 155, 156}, {157, 158, 159}, {160, 161, 162}, {163, 164, 165}, {166, 167, 168}, {169, 170, 171}, {172, 173, 174}, {175, 176, 177}, {178, 179, 180}, {181, 182, 183}, {184, 185, 186}, {187, 188, 189}, {190, 191, 192}, {193, 194, 195}, {196, 197, 198}, {199, 200, 201}, {202, 203, 204}, {205, 206, 207}, {208, 209, 210}, {211, 212, 213}, {214, 215, 216}, {217, 218, 219}, {220, 221, 222}, {223, 224, 225}, {226, 227, 228}, {229, 230, 231}, {232, 233, 234}, {235, 236, 237}, {238, 239, 240}, {241, 242, 243}, {244, 245, 246}, {247, 248, 249}, {250, 251, 252}, {253, 254, 255}, {256, 257, 258}, {259, 260, 261}, {262, 263, 264}, {265, 266, 267}, {268, 269, 270}, {271, 272, 273}, {274, 275, 276}, {277, 278, 279}, {280, 281, 282}, {283, 284, 285}, {286, 287, 288}, {289, 290, 291}, {292, 293, 294}, {295, 296, 297}, {298, 299, 300}];
succ =  [{16, 15, 14, 12, 10, 9}, {27, 16, 15, 14, 6}, {18, 15, 12, 11}, {27, 24, 23, 18, 16, 15, 14}, {27, 23, 18, 17, 16, 14}, {22, 19, 18, 12}, {27, 23, 19, 17, 14}, {23, 19, 17, 14}, {33, 28, 27, 25, 23, 22, 21, 20, 19}, {25, 23, 22, 21, 20, 19, 18}, {28, 23, 19, 14}, {33, 24, 23, 21, 17}, {25, 23, 22, 19, 18}, {33, 26, 25, 22, 21, 20}, {34, 33, 28, 25, 21, 19}, {38, 34, 33, 30, 29, 28, 26, 22}, {35, 31, 28, 26, 25, 20}, {42, 38, 34, 33, 32, 30, 28}, {36, 35, 31, 30, 26}, {42, 41, 39, 38, 37, 36, 34, 32}, {42, 41, 39, 35, 29}, {36, 35, 32, 31}, {38, 37, 36, 29}, {54, 42, 38, 37, 36, 30}, {43, 42, 38, 30}, {53, 49, 47, 46, 45, 44, 43, 42, 41, 37}, {50, 47, 45, 44, 43, 40, 39, 38}, {58, 54, 50, 47, 46, 45, 44, 39, 37}, {50, 32}, {58, 55, 53, 48, 47, 46, 45, 41, 40}, {58, 48, 46, 45, 43, 41, 39}, {58, 57, 55, 53, 47, 45, 44, 43, 40}, {54, 53, 52, 50, 45, 44, 40, 36}, {59, 58, 55, 54, 53, 52, 50, 48, 40}, {55, 50, 49, 47, 46, 37}, {64, 63, 60, 59, 58, 57, 56, 51, 49}, {64, 63, 59, 57, 52, 51, 48}, {64, 56, 53, 52, 51, 46}, {60, 57, 56, 55, 51, 49}, {72, 64, 63, 60, 56, 51, 49}, {68, 66, 65, 63, 62, 52, 50}, {66, 63, 60, 59, 58, 56}, {66, 63, 62, 60, 59, 54}, {64, 51, 48}, {72, 66, 65, 63, 62, 60, 59}, {72, 68, 66, 65, 63, 59, 57}, {72, 65, 61, 51}, {72, 70, 67, 60, 56}, {77, 74, 73, 69, 68, 66, 62, 61}, {67, 64, 57}, {87, 77, 74, 73, 70, 69, 68, 67, 66, 62}, {79, 77, 74, 73, 72, 71, 69, 61}, {79, 74, 68, 63, 61}, {87, 85, 79, 77, 76, 75, 74, 72, 70, 69, 65}, {87, 77, 76, 75, 72, 70, 69, 68, 64}, {87, 80, 77, 74, 71, 69, 65, 62}, {91, 84, 79, 77, 74, 73, 69, 61}, {87, 85, 79, 78, 76, 75, 73, 72, 71, 70, 69}, {91, 84, 79, 77, 74, 69, 61}, {87, 85, 80, 78, 75, 73, 69, 68}, {87, 85, 81, 78, 76, 75, 70}, {91, 86, 85, 84, 81, 76, 75}, {85, 73, 67}, {85, 84, 82, 81, 78, 71}, {92, 91, 90, 81, 78, 73}, {99, 91, 90, 88, 86, 84, 82, 80, 79}, {91, 90, 86, 84, 83, 76}, {100, 92, 89, 83, 71}, {99, 97, 90, 88, 82, 81}, {100, 99, 88, 86, 82, 80}, {99, 98, 96, 94, 91, 90, 88, 86}, {99, 98, 97, 94, 91, 89, 88, 84}, {100, 99, 97, 95, 88, 82}, {98, 92, 90, 89, 88, 83}, {99, 97, 90, 88, 82}, {99, 97, 96, 95, 92, 89, 88}, {98, 97, 96, 95, 94, 89, 88}, {100, 96, 95, 94, 89, 88}, {98, 96, 95, 94, 89}, {97, 95, 94, 89}, {100, 83}, {98, 96, 94, 93}, {95, 94, 93}, {100, 96, 93}, {94, 88}, {97, 95}, {99, 97}, {93}, {93}, {93}, {93}, {93}, {}, {}, {}, {}, {}, {}, {}, {}];
n_opt = 300;
dur = [6, 7, 10, 3, 5, 8, 1, 2, 3, 5, 7, 10, 2, 4, 8, 5, 8, 9, 6, 9, 10, 1, 2, 6, 1, 3, 9, 4, 5, 6, 5, 9, 10, 2, 3, 10, 5, 6, 7, 3, 6, 7, 3, 5, 6, 2, 6, 7, 4, 5, 6, 1, 5, 9, 1, 4, 5, 3, 4, 9, 5, 7, 8, 3, 7, 9, 1, 7, 8, 3, 4, 5, 2, 3, 10, 5, 7, 10, 2, 6, 10, 1, 8, 9, 4, 5, 8, 2, 7, 9, 5, 6, 7, 1, 5, 10, 2, 8, 9, 1, 5, 6, 1, 5, 7, 3, 8, 10, 3, 5, 8, 3, 8, 9, 1, 4, 10, 6, 9, 10, 2, 3, 6, 6, 7, 8, 1, 2, 4, 4, 6, 9, 3, 7, 9, 7, 8, 9, 6, 7, 10, 2, 3, 4, 2, 4, 5, 2, 3, 5, 2, 7, 10, 5, 6, 8, 1, 7, 8, 6, 8, 9, 2, 4, 10, 7, 8, 9, 2, 5, 8, 1, 2, 10, 1, 2, 10, 3, 6, 8, 4, 6, 9, 4, 9, 10, 3, 4, 5, 5, 9, 10, 1, 4, 9, 3, 4, 10, 1, 4, 6, 4, 5, 6, 1, 2, 9, 2, 7, 8, 5, 6, 7, 1, 6, 9, 3, 5, 9, 2, 6, 8, 2, 3, 9, 3, 6, 8, 5, 6, 7, 1, 8, 10, 3, 7, 8, 1, 2, 4, 6, 7, 10, 3, 7, 8, 1, 4, 9, 3, 8, 10, 4, 6, 8, 5, 6, 10, 3, 4, 7, 2, 7, 8, 1, 3, 4, 4, 6, 7, 4, 6, 8, 8, 8, 9, 3, 4, 7, 1, 4, 6, 7, 9, 10, 3, 6, 8, 6, 8, 10, 5, 6, 9, 2, 8, 10, 1, 3, 8];
rreq = [|6, 5, 5, 6, 5, 3, 5, 4, 4, 5, 3, 3, 9, 8, 7, 9, 9, 8, 8, 5, 3, 4, 2, 2, 2, 2, 2, 9, 7, 6, 7, 7, 5, 7, 6, 1, 7, 7, 7, 5, 5, 2, 8, 6, 5, 9, 6, 5, 9, 8, 7, 8, 7, 6, 7, 6, 3, 10, 7, 3, 9, 8, 6, 8, 4, 2, 8, 8, 8, 7, 6, 5, 5, 3, 3, 5, 5, 5, 7, 7, 6, 8, 8, 8, 7, 6, 6, 10, 9, 9, 2, 1, 1, 9, 8, 8, 6, 5, 4, 3, 2, 2, 5, 4, 2, 3, 3, 3, 10, 8, 6, 5, 5, 3, 8, 7, 5, 7, 4, 4, 8, 6, 6, 5, 5, 3, 9, 8, 8, 10, 9, 9, 8, 7, 5, 9, 9, 9, 9, 7, 5, 9, 7, 4, 9, 8, 8, 5, 4, 2, 9, 6, 4, 6, 5, 5, 7, 6, 6, 6, 2, 2, 6, 5, 4, 8, 6, 4, 6, 5, 3, 8, 5, 3, 8, 7, 4, 9, 9, 8, 5, 3, 2, 3, 2, 2, 9, 5, 4, 8, 7, 7, 9, 8, 8, 7, 5, 4, 6, 3, 2, 3, 3, 3, 9, 9, 9, 7, 5, 4, 7, 6, 1, 6, 5, 2, 7, 5, 2, 5, 4, 3, 3, 2, 2, 1, 1, 1, 10, 8, 6, 6, 5, 5, 4, 3, 2, 9, 9, 9, 8, 6, 6, 8, 7, 2, 3, 3, 3, 9, 7, 5, 8, 6, 2, 9, 7, 7, 5, 3, 3, 4, 3, 2, 6, 6, 5, 5, 5, 5, 9, 5, 5, 7, 5, 5, 6, 6, 6, 5, 3, 1, 8, 8, 8, 9, 9, 8, 4, 3, 2, 8, 5, 3, 9, 9, 7, 8, 5, 2
 |5, 3, 1, 8, 8, 8, 9, 9, 9, 9, 6, 3, 8, 7, 6, 9, 6, 5, 9, 9, 9, 6, 4, 3, 7, 6, 6, 7, 6, 6, 10, 6, 4, 3, 1, 1, 9, 7, 6, 8, 7, 7, 2, 1, 1, 5, 5, 3, 9, 9, 9, 8, 5, 4, 7, 5, 5, 10, 7, 7, 6, 3, 2, 5, 3, 3, 9, 7, 5, 3, 2, 2, 10, 7, 5, 7, 5, 5, 7, 6, 3, 8, 6, 2, 4, 2, 2, 10, 8, 8, 3, 2, 2, 6, 4, 4, 9, 7, 6, 4, 3, 1, 9, 8, 7, 7, 7, 5, 5, 3, 3, 7, 5, 3, 9, 6, 4, 1, 1, 1, 4, 3, 2, 7, 5, 3, 4, 3, 3, 7, 5, 2, 1, 1, 1, 5, 5, 5, 10, 9, 9, 10, 9, 9, 7, 6, 6, 4, 4, 4, 8, 7, 6, 9, 7, 7, 6, 4, 3, 10, 8, 6, 4, 3, 2, 4, 4, 3, 9, 9, 9, 8, 6, 6, 5, 3, 3, 8, 4, 1, 9, 5, 4, 10, 5, 3, 4, 4, 4, 9, 9, 9, 5, 4, 4, 6, 5, 5, 8, 4, 3, 8, 7, 7, 3, 3, 3, 2, 2, 1, 2, 1, 1, 4, 3, 3, 8, 5, 5, 3, 2, 2, 9, 8, 8, 6, 4, 4, 9, 8, 8, 5, 5, 5, 3, 1, 1, 10, 10, 10, 8, 6, 4, 10, 6, 2, 7, 5, 3, 8, 4, 4, 8, 6, 3, 4, 4, 4, 9, 8, 8, 10, 7, 5, 7, 5, 5, 10, 6, 5, 8, 5, 5, 6, 3, 3, 9, 8, 8, 9, 6, 6, 6, 4, 2, 6, 6, 6, 10, 5, 3, 6, 6, 6, 6, 5, 4, 8, 5, 5
 |8, 8, 8, 7, 4, 4, 3, 2, 1, 5, 5, 2, 3, 3, 3, 10, 8, 8, 8, 8, 5, 7, 3, 2, 5, 5, 1, 10, 8, 7, 4, 3, 3, 5, 5, 2, 8, 4, 2, 5, 4, 3, 7, 5, 4, 5, 5, 4, 9, 9, 9, 7, 6, 3, 3, 3, 2, 7, 5, 3, 6, 6, 2, 5, 5, 4, 8, 7, 6, 4, 4, 4, 5, 4, 3, 5, 3, 3, 9, 7, 5, 5, 5, 5, 9, 4, 2, 9, 8, 8, 6, 3, 3, 6, 5, 4, 4, 3, 2, 6, 4, 3, 9, 6, 2, 8, 6, 6, 7, 6, 3, 4, 2, 2, 3, 3, 3, 9, 8, 7, 5, 4, 4, 4, 2, 2, 10, 8, 4, 8, 7, 6, 2, 2, 1, 7, 4, 2, 8, 5, 4, 10, 6, 2, 4, 3, 1, 3, 3, 1, 1, 1, 1, 6, 5, 5, 4, 4, 4, 6, 4, 4, 6, 5, 4, 6, 5, 4, 4, 3, 3, 4, 3, 2, 9, 5, 4, 4, 2, 1, 8, 7, 3, 9, 8, 8, 7, 7, 7, 5, 5, 4, 8, 5, 3, 5, 4, 4, 7, 5, 2, 7, 5, 4, 7, 6, 5, 9, 8, 5, 9, 6, 1, 10, 9, 9, 8, 8, 7, 8, 7, 5, 5, 3, 1, 6, 6, 5, 10, 9, 9, 9, 8, 6, 7, 7, 7, 7, 4, 3, 6, 5, 4, 8, 7, 7, 8, 7, 5, 8, 8, 8, 9, 8, 8, 5, 4, 4, 6, 4, 3, 7, 7, 6, 10, 8, 8, 6, 6, 6, 9, 5, 4, 7, 7, 7, 9, 9, 9, 7, 4, 3, 9, 8, 6, 1, 1, 1, 5, 5, 5, 2, 2, 2, 8, 4, 3, 5, 4, 4
 |3, 3, 3, 5, 4, 4, 3, 3, 3, 7, 6, 1, 8, 7, 7, 7, 7, 7, 10, 9, 9, 6, 6, 4, 9, 9, 9, 7, 6, 3, 7, 3, 1, 8, 8, 6, 9, 6, 6, 9, 7, 6, 8, 4, 4, 7, 6, 4, 4, 4, 2, 6, 6, 6, 10, 8, 7, 8, 7, 7, 9, 8, 8, 8, 6, 5, 9, 7, 7, 9, 9, 7, 8, 8, 8, 9, 9, 8, 5, 4, 4, 5, 3, 3, 8, 7, 5, 4, 3, 1, 4, 4, 3, 8, 7, 6, 3, 3, 2, 8, 8, 7, 9, 5, 1, 8, 5, 2, 7, 5, 5, 6, 5, 5, 1, 1, 1, 9, 7, 6, 10, 7, 4, 7, 4, 1, 10, 8, 8, 3, 2, 2, 8, 6, 3, 6, 3, 3, 2, 2, 2, 4, 2, 2, 3, 2, 1, 7, 6, 6, 9, 5, 4, 1, 2, 1, 5, 5, 5, 7, 6, 3, 7, 5, 5, 6, 5, 4, 8, 4, 2, 7, 5, 5, 6, 4, 4, 10, 9, 8, 7, 4, 1, 5, 3, 3, 6, 4, 2, 7, 7, 7, 7, 5, 3, 10, 9, 8, 6, 5, 3, 10, 8, 8, 6, 4, 4, 8, 8, 6, 1, 1, 1, 5, 4, 4, 9, 8, 8, 3, 2, 1, 7, 4, 3, 8, 6, 6, 4, 4, 4, 7, 6, 6, 4, 3, 3, 3, 2, 2, 6, 6, 5, 8, 6, 3, 8, 8, 8, 8, 7, 7, 8, 7, 5, 5, 3, 2, 5, 4, 2, 5, 5, 2, 7, 5, 5, 10, 6, 4, 6, 5, 4, 3, 4, 3, 10, 7, 5, 10, 8, 8, 8, 6, 3, 10, 9, 9, 9, 9, 9, 9, 9, 8, 8, 8, 7, 4, 4, 4|];